WARNING: for repeatability, setting FPU to use double precision
============================[ Problem Statistics ]=============================
|                                                                             |
|  Number of variables:           900                                         |
|  Number of clauses:           41634                                         |
|  Parse time:                   0.01 s                                       |
|                                                                             |
c ============================[ Search Statistics ]==============================
c | Conflicts |          ORIGINAL         |          LEARNT          | Progress |
c |           |    Vars  Clauses Literals |    Limit  Clauses Lit/Cl |          |
c ===============================================================================
c Switched to VSIDS.
c Switched to LRB.
c Switched to VSIDS.
c Switched to LRB.
c Switched to VSIDS.
c Switched to LRB.
c Switched to VSIDS.
c Switched to LRB.
c Switched to VSIDS.
c Switched to LRB.
c Switched to VSIDS.
c Switched to LRB.
c ===============================================================================
restarts                  : 81088
conflicts                 : 18761783       (5327 /sec)
decisions                 : 37152552       (0.00 % random) (10548 /sec)
propagations              : 793930560      (225407 /sec)
conflict literals         : 5550356840     (9.37 % deleted)

conflicts w/ DIP found    : 11487235       (61.23 % of conflicts)
conflicts w/ dangerous DIP: 0              (0.00 % of conflicts)
conflicts w/ DIP-learning : 3063           (0.02 % of conflicts)
decisions on ext vars     : 303            (0.00 % of decisions)
total ext vars            : 693         
tried delete ext vars     : 291         
deleted ext vars          : 291         
max ext vars              : 402         

Memory used               : 331.00 MB
CPU time                  : 3522.21 s
DIP computation time      : 97.7627 s (2.78 % of total time)
ER_sel time               : 35.7646 s
ER_add time               : 0.00448 s
ER_delC time              : 0 s
ER_delV time              : 0.705253 s
ER_sub time               : 38.5583 s
ER_stat time              : 0 s

INDETERMINATE
